c FILE: random-n100-d20-e-n100-d20-1.col

p edge 100 990
e 1 4
e 1 12
e 1 14
e 1 15
e 1 33
e 1 49
e 1 52
e 1 53
e 1 63
e 1 73
e 1 75
e 1 76
e 1 79
e 1 81
e 1 86
e 1 87
e 1 89
e 1 92
e 1 98
e 2 4
e 2 12
e 2 19
e 2 22
e 2 24
e 2 26
e 2 41
e 2 48
e 2 50
e 2 53
e 2 64
e 2 66
e 2 67
e 2 68
e 2 72
e 2 85
e 2 86
e 2 87
e 2 100
e 3 9
e 3 15
e 3 24
e 3 26
e 3 27
e 3 36
e 3 37
e 3 42
e 3 50
e 3 54
e 3 59
e 3 64
e 3 69
e 3 70
e 3 78
e 3 79
e 3 81
e 3 86
e 3 92
e 3 96
e 4 10
e 4 12
e 4 13
e 4 19
e 4 20
e 4 27
e 4 32
e 4 33
e 4 35
e 4 42
e 4 47
e 4 49
e 4 50
e 4 51
e 4 54
e 4 58
e 4 63
e 4 66
e 4 69
e 4 70
e 4 73
e 4 78
e 4 84
e 4 87
e 4 98
e 4 99
e 5 12
e 5 14
e 5 23
e 5 26
e 5 33
e 5 38
e 5 43
e 5 46
e 5 49
e 5 51
e 5 53
e 5 58
e 5 60
e 5 85
e 5 88
e 5 92
e 5 94
e 5 96
e 6 10
e 6 13
e 6 16
e 6 23
e 6 24
e 6 31
e 6 35
e 6 36
e 6 39
e 6 48
e 6 51
e 6 60
e 6 61
e 6 62
e 6 63
e 6 65
e 6 67
e 6 87
e 6 92
e 6 93
e 6 96
e 6 97
e 7 13
e 7 15
e 7 18
e 7 25
e 7 28
e 7 43
e 7 49
e 7 56
e 7 62
e 7 70
e 7 78
e 7 91
e 7 92
e 7 93
e 7 94
e 7 95
e 7 96
e 7 97
e 8 17
e 8 29
e 8 37
e 8 39
e 8 45
e 8 46
e 8 55
e 8 66
e 8 83
e 8 86
e 8 93
e 8 100
e 9 12
e 9 14
e 9 17
e 9 24
e 9 30
e 9 32
e 9 34
e 9 55
e 9 56
e 9 59
e 9 60
e 9 63
e 9 68
e 9 73
e 9 92
e 9 96
e 9 98
e 10 16
e 10 21
e 10 22
e 10 23
e 10 34
e 10 36
e 10 38
e 10 44
e 10 45
e 10 47
e 10 48
e 10 60
e 10 61
e 10 62
e 10 63
e 10 66
e 10 73
e 10 84
e 10 87
e 10 89
e 10 90
e 10 95
e 10 96
e 10 100
e 11 17
e 11 23
e 11 37
e 11 40
e 11 42
e 11 43
e 11 49
e 11 50
e 11 56
e 11 65
e 11 70
e 11 77
e 11 81
e 11 82
e 11 85
e 11 88
e 11 90
e 11 92
e 11 93
e 11 94
e 12 19
e 12 24
e 12 31
e 12 34
e 12 40
e 12 43
e 12 45
e 12 46
e 12 51
e 12 52
e 12 57
e 12 61
e 12 66
e 12 70
e 12 76
e 12 80
e 12 84
e 12 87
e 12 93
e 12 98
e 13 14
e 13 20
e 13 31
e 13 35
e 13 38
e 13 40
e 13 41
e 13 44
e 13 48
e 13 51
e 13 62
e 13 64
e 13 65
e 13 70
e 13 73
e 13 74
e 13 78
e 13 79
e 13 81
e 13 82
e 13 86
e 13 95
e 14 16
e 14 20
e 14 26
e 14 33
e 14 37
e 14 38
e 14 39
e 14 44
e 14 62
e 14 67
e 14 69
e 14 76
e 14 77
e 14 97
e 14 98
e 15 17
e 15 25
e 15 28
e 15 29
e 15 32
e 15 36
e 15 37
e 15 40
e 15 45
e 15 47
e 15 49
e 15 52
e 15 56
e 15 60
e 15 66
e 15 70
e 15 78
e 15 81
e 15 89
e 15 97
e 15 98
e 15 99
e 16 21
e 16 23
e 16 24
e 16 28
e 16 33
e 16 35
e 16 39
e 16 62
e 16 70
e 16 73
e 16 81
e 16 84
e 16 87
e 16 88
e 16 89
e 16 90
e 16 96
e 16 97
e 16 100
e 17 26
e 17 28
e 17 29
e 17 33
e 17 45
e 17 56
e 17 61
e 17 65
e 17 73
e 17 74
e 17 76
e 17 79
e 17 91
e 17 93
e 18 19
e 18 21
e 18 29
e 18 33
e 18 34
e 18 46
e 18 48
e 18 50
e 18 51
e 18 53
e 18 59
e 18 69
e 18 76
e 18 79
e 18 84
e 18 86
e 18 87
e 18 88
e 18 92
e 19 20
e 19 26
e 19 33
e 19 37
e 19 46
e 19 52
e 19 53
e 19 56
e 19 60
e 19 65
e 19 75
e 19 76
e 19 78
e 19 85
e 19 86
e 19 89
e 20 25
e 20 34
e 20 38
e 20 41
e 20 64
e 20 71
e 20 75
e 20 76
e 20 77
e 20 84
e 20 97
e 20 99
e 21 29
e 21 30
e 21 34
e 21 44
e 21 53
e 21 59
e 21 65
e 21 75
e 21 76
e 21 77
e 21 81
e 21 83
e 21 85
e 21 89
e 22 29
e 22 33
e 22 45
e 22 49
e 22 56
e 22 61
e 22 64
e 22 68
e 22 69
e 22 73
e 22 77
e 22 85
e 22 88
e 22 89
e 23 33
e 23 34
e 23 35
e 23 41
e 23 45
e 23 48
e 23 53
e 23 57
e 23 65
e 23 66
e 23 86
e 23 95
e 23 97
e 23 99
e 24 30
e 24 31
e 24 46
e 24 53
e 24 56
e 24 57
e 24 58
e 24 67
e 24 71
e 24 92
e 25 28
e 25 34
e 25 35
e 25 38
e 25 39
e 25 42
e 25 43
e 25 47
e 25 48
e 25 55
e 25 58
e 25 62
e 25 66
e 25 73
e 25 78
e 25 79
e 25 85
e 26 29
e 26 31
e 26 36
e 26 56
e 26 65
e 26 70
e 26 76
e 26 84
e 26 97
e 26 98
e 26 100
e 27 33
e 27 34
e 27 35
e 27 39
e 27 50
e 27 51
e 27 55
e 27 58
e 27 59
e 27 62
e 27 65
e 27 67
e 27 68
e 27 77
e 27 91
e 27 93
e 27 99
e 28 33
e 28 34
e 28 37
e 28 41
e 28 42
e 28 44
e 28 48
e 28 53
e 28 54
e 28 66
e 28 71
e 28 77
e 28 92
e 28 95
e 29 37
e 29 39
e 29 41
e 29 43
e 29 44
e 29 46
e 29 52
e 29 63
e 29 65
e 29 72
e 29 74
e 29 75
e 29 79
e 29 83
e 29 86
e 29 87
e 29 94
e 29 95
e 29 100
e 30 35
e 30 47
e 30 49
e 30 58
e 30 60
e 30 62
e 30 64
e 30 70
e 30 76
e 30 78
e 30 85
e 30 87
e 30 90
e 31 38
e 31 39
e 31 40
e 31 42
e 31 44
e 31 48
e 31 55
e 31 70
e 31 73
e 31 76
e 31 78
e 31 79
e 31 87
e 31 88
e 32 34
e 32 38
e 32 39
e 32 42
e 32 43
e 32 45
e 32 57
e 32 59
e 32 62
e 32 64
e 32 76
e 32 79
e 32 83
e 32 87
e 32 91
e 32 93
e 32 95
e 32 96
e 33 42
e 33 48
e 33 49
e 33 51
e 33 59
e 33 62
e 33 80
e 33 88
e 33 89
e 33 93
e 33 99
e 34 44
e 34 47
e 34 49
e 34 60
e 34 62
e 34 64
e 34 66
e 34 73
e 34 74
e 34 79
e 34 82
e 34 87
e 34 95
e 34 97
e 34 98
e 35 36
e 35 37
e 35 49
e 35 75
e 35 79
e 35 82
e 35 83
e 35 87
e 35 93
e 35 95
e 35 96
e 36 53
e 36 59
e 36 65
e 36 76
e 36 77
e 36 94
e 36 100
e 37 39
e 37 40
e 37 42
e 37 45
e 37 48
e 37 49
e 37 59
e 37 64
e 37 68
e 37 69
e 37 80
e 37 100
e 38 43
e 38 47
e 38 53
e 38 65
e 38 69
e 38 71
e 38 86
e 38 88
e 39 44
e 39 47
e 39 52
e 39 55
e 39 64
e 39 67
e 39 72
e 39 74
e 39 77
e 39 85
e 39 90
e 40 44
e 40 52
e 40 55
e 40 72
e 40 83
e 40 84
e 40 89
e 40 95
e 41 43
e 41 46
e 41 63
e 41 65
e 41 71
e 41 76
e 41 93
e 41 94
e 41 98
e 41 99
e 42 44
e 42 46
e 42 51
e 42 60
e 42 63
e 42 66
e 42 72
e 42 73
e 42 76
e 42 78
e 42 80
e 42 81
e 42 84
e 42 85
e 42 89
e 42 97
e 43 46
e 43 53
e 43 55
e 43 63
e 43 65
e 43 70
e 43 72
e 43 73
e 43 74
e 43 76
e 43 80
e 43 84
e 43 87
e 43 89
e 43 97
e 43 98
e 44 47
e 44 59
e 44 78
e 44 87
e 44 89
e 44 99
e 44 100
e 45 47
e 45 51
e 45 63
e 45 64
e 45 73
e 45 74
e 45 82
e 45 87
e 45 91
e 45 94
e 45 99
e 46 59
e 46 62
e 46 70
e 46 81
e 46 84
e 46 86
e 46 87
e 46 94
e 46 96
e 47 57
e 47 67
e 47 74
e 47 75
e 47 79
e 47 84
e 47 95
e 47 96
e 48 49
e 48 53
e 48 71
e 48 74
e 48 75
e 48 79
e 48 86
e 48 87
e 48 88
e 48 89
e 48 97
e 49 50
e 49 65
e 49 71
e 49 72
e 49 73
e 49 89
e 49 94
e 50 51
e 50 56
e 50 61
e 50 65
e 50 70
e 50 71
e 50 72
e 50 83
e 50 90
e 50 94
e 50 96
e 50 100
e 51 62
e 51 79
e 51 83
e 51 88
e 51 90
e 52 61
e 52 67
e 52 68
e 52 74
e 52 83
e 52 85
e 52 87
e 52 88
e 52 89
e 52 90
e 52 94
e 52 98
e 53 56
e 53 60
e 53 71
e 53 73
e 53 74
e 53 80
e 53 92
e 53 93
e 53 96
e 53 98
e 54 55
e 54 62
e 54 66
e 54 74
e 54 81
e 54 82
e 54 83
e 54 87
e 54 90
e 54 93
e 54 97
e 54 98
e 55 65
e 55 73
e 55 74
e 55 75
e 55 76
e 55 82
e 55 83
e 55 84
e 55 87
e 55 88
e 55 93
e 55 99
e 56 57
e 56 64
e 56 67
e 56 84
e 56 98
e 57 58
e 57 61
e 57 62
e 57 69
e 57 70
e 57 72
e 57 76
e 57 82
e 57 93
e 57 98
e 58 70
e 58 76
e 58 79
e 58 83
e 58 94
e 59 67
e 59 69
e 59 72
e 59 75
e 59 76
e 59 85
e 59 87
e 59 93
e 59 95
e 59 97
e 59 99
e 60 61
e 60 68
e 60 76
e 60 79
e 60 81
e 60 82
e 60 88
e 60 92
e 60 99
e 61 62
e 61 67
e 61 69
e 61 77
e 61 83
e 61 91
e 61 97
e 62 63
e 62 66
e 62 68
e 62 70
e 62 73
e 63 66
e 63 67
e 63 68
e 63 69
e 63 76
e 63 78
e 63 79
e 63 82
e 63 84
e 63 85
e 63 94
e 64 66
e 64 67
e 64 75
e 64 82
e 64 100
e 65 82
e 65 84
e 65 90
e 65 92
e 65 95
e 65 98
e 65 99
e 66 68
e 66 72
e 66 79
e 66 87
e 66 90
e 66 93
e 67 71
e 67 72
e 67 73
e 67 75
e 67 79
e 67 83
e 67 85
e 67 99
e 68 69
e 68 73
e 68 83
e 68 88
e 68 91
e 68 95
e 69 70
e 69 75
e 69 90
e 69 99
e 70 78
e 70 80
e 70 84
e 70 87
e 70 88
e 70 95
e 70 98
e 70 100
e 71 73
e 71 75
e 71 78
e 71 79
e 71 88
e 71 89
e 71 97
e 72 84
e 72 95
e 73 80
e 73 84
e 73 87
e 73 92
e 74 78
e 74 80
e 74 88
e 74 90
e 74 91
e 74 92
e 75 79
e 75 81
e 75 86
e 75 97
e 75 98
e 76 81
e 76 83
e 76 85
e 76 91
e 76 95
e 76 99
e 76 100
e 77 87
e 77 91
e 77 97
e 78 79
e 78 80
e 78 83
e 78 84
e 78 90
e 79 80
e 79 85
e 79 91
e 80 81
e 80 83
e 80 93
e 80 95
e 80 98
e 81 83
e 81 87
e 81 88
e 81 89
e 81 92
e 81 96
e 82 83
e 82 87
e 82 93
e 82 96
e 82 97
e 82 99
e 82 100
e 83 85
e 83 87
e 83 95
e 83 97
e 83 100
e 84 85
e 84 89
e 84 91
e 84 92
e 85 86
e 85 94
e 85 99
e 86 91
e 86 92
e 87 90
e 87 92
e 87 100
e 88 90
e 88 94
e 88 100
e 89 90
e 90 93
e 91 98
e 91 100
e 92 100
e 93 94
e 93 95
e 94 97
e 94 99
e 95 96
e 95 99
e 97 98
e 99 100